NAME          
ROWS
 N  OBJ
 L  c1
 L  c2
COLUMNS
    MARKER    'MARKER'                 'INTORG'
    x[1]      c1        567
    x[1]      c2        47
    x[1]      OBJ       -198
    x[2]      c1        428
    x[2]      c2        968
    x[2]      OBJ       -253
    x[3]      c1        68
    x[3]      c2        580
    x[3]      OBJ       -291
    x[4]      c1        187
    x[4]      c2        756
    x[4]      OBJ       -433
    x[5]      c1        112
    x[5]      c2        576
    x[5]      OBJ       -484
    x[6]      c1        450
    x[6]      c2        867
    x[6]      OBJ       -196
    x[7]      c1        992
    x[7]      c2        765
    x[7]      OBJ       -13
    x[8]      c1        762
    x[8]      c2        787
    x[8]      OBJ       -603
    x[9]      c1        573
    x[9]      c2        75
    x[9]      OBJ       -124
    x[10]     c1        690
    x[10]     c2        456
    x[10]     OBJ       -716
    x[11]     c1        437
    x[11]     c2        340
    x[11]     OBJ       -218
    x[12]     c1        459
    x[12]     c2        256
    x[12]     OBJ       -367
    x[13]     c1        207
    x[13]     c2        509
    x[13]     OBJ       -510
    x[14]     c1        347
    x[14]     c2        965
    x[14]     OBJ       -843
    x[15]     c1        226
    x[15]     c2        762
    x[15]     OBJ       -428
    x[16]     c1        310
    x[16]     c2        829
    x[16]     OBJ       -834
    x[17]     c1        147
    x[17]     c2        358
    x[17]     OBJ       -852
    x[18]     c1        596
    x[18]     c2        898
    x[18]     OBJ       -927
    x[19]     c1        166
    x[19]     c2        368
    x[19]     OBJ       -475
    x[20]     c1        865
    x[20]     c2        117
    x[20]     OBJ       -792
    x[21]     c1        897
    x[21]     c2        64
    x[21]     OBJ       -699
    x[22]     c1        897
    x[22]     c2        445
    x[22]     OBJ       -189
    x[23]     c1        975
    x[23]     c2        339
    x[23]     OBJ       -365
    x[24]     c1        446
    x[24]     c2        256
    x[24]     OBJ       -30
    x[25]     c1        210
    x[25]     c2        104
    x[25]     OBJ       -697
    x[26]     c1        213
    x[26]     c2        761
    x[26]     OBJ       -739
    x[27]     c1        362
    x[27]     c2        908
    x[27]     OBJ       -759
    x[28]     c1        282
    x[28]     c2        242
    x[28]     OBJ       -192
    x[29]     c1        724
    x[29]     c2        98
    x[29]     OBJ       -398
    x[30]     c1        174
    x[30]     c2        972
    x[30]     OBJ       -686
RHS
    rhs       c1        6884
    rhs       c2        7734
RANGES
BOUNDS
 LO bounds    x[1]      0
 PL bounds    x[1]
 LO bounds    x[2]      0
 PL bounds    x[2]
 LO bounds    x[3]      0
 PL bounds    x[3]
 LO bounds    x[4]      0
 PL bounds    x[4]
 LO bounds    x[5]      0
 PL bounds    x[5]
 LO bounds    x[6]      0
 PL bounds    x[6]
 LO bounds    x[7]      0
 PL bounds    x[7]
 LO bounds    x[8]      0
 PL bounds    x[8]
 LO bounds    x[9]      0
 PL bounds    x[9]
 LO bounds    x[10]     0
 PL bounds    x[10]
 LO bounds    x[11]     0
 PL bounds    x[11]
 LO bounds    x[12]     0
 PL bounds    x[12]
 LO bounds    x[13]     0
 PL bounds    x[13]
 LO bounds    x[14]     0
 PL bounds    x[14]
 LO bounds    x[15]     0
 PL bounds    x[15]
 LO bounds    x[16]     0
 PL bounds    x[16]
 LO bounds    x[17]     0
 PL bounds    x[17]
 LO bounds    x[18]     0
 PL bounds    x[18]
 LO bounds    x[19]     0
 PL bounds    x[19]
 LO bounds    x[20]     0
 PL bounds    x[20]
 LO bounds    x[21]     0
 PL bounds    x[21]
 LO bounds    x[22]     0
 PL bounds    x[22]
 LO bounds    x[23]     0
 PL bounds    x[23]
 LO bounds    x[24]     0
 PL bounds    x[24]
 LO bounds    x[25]     0
 PL bounds    x[25]
 LO bounds    x[26]     0
 PL bounds    x[26]
 LO bounds    x[27]     0
 PL bounds    x[27]
 LO bounds    x[28]     0
 PL bounds    x[28]
 LO bounds    x[29]     0
 PL bounds    x[29]
 LO bounds    x[30]     0
 PL bounds    x[30]
ENDATA
